NAME : in_house_8_3
TYPE : TSP
DIMENSION : 8
EDGE_WEIGHT_TYPE : EXPLICIT
EDGE_WEIGHT_FORMAT : UPPER_ROW
COMMENT : INVERSION_SHIFT=4
EDGE_WEIGHT_SECTION
41
47
64
58
43
14
31
2
7
11
2
37
55
56
28
54
58
44
20
53
45
26
42
24
37
2
59
9
